p td 120 119
0 1
0 2
0 3
0 4
0 8
0 10
0 11
0 13
0 26
0 37
0 49
0 53
0 57
0 65
0 69
0 115
1 5
1 9
1 16
1 20
1 38
1 55
1 80
1 81
3 24
3 73
3 84
3 86
4 6
4 7
4 12
4 14
4 15
4 17
4 21
4 25
4 30
4 39
4 46
4 56
4 67
4 96
4 101
4 118
7 28
7 62
7 82
7 112
9 32
9 33
9 43
9 58
9 61
9 77
9 97
11 45
11 68
11 119
12 23
12 47
12 63
12 66
14 42
14 50
14 51
16 99
17 18
17 19
18 78
19 22
20 29
21 27
21 34
21 35
21 36
21 72
22 31
22 106
24 44
24 59
24 111
25 117
27 64
27 107
28 40
28 75
30 54
30 89
34 48
38 71
39 41
39 60
39 110
40 83
40 92
41 52
42 109
44 70
45 105
46 90
51 76
52 94
52 108
56 114
57 88
61 87
64 91
64 100
66 74
67 113
72 79
72 116
76 85
79 95
83 104
90 102
91 93
97 98
98 103
